c turning on binary mode checking
c parsing input formula with 202048 variables and 780980 clauses
c finished parsing, read 16688274 bytes from proof file
c detected empty clause; start verification via backward checking
c 5016 of 780980 clauses in core                            
c 5751 of 457056 lemmas in core using 26014 resolution steps
c 0 RAT lemmas in core; 178 redundant literals in core lemmas
s VERIFIED
c verification time: 1.924 seconds
